c FILE /home/rafael/Documents/HappySet/MIHS/inputs/happygen/output/graph_scale_free_k2_p0.3_v100_20241127_083757.txt
c SOURCE This is a scale-free graph formed for the happy graph colouring problem.
c DESCRIPTION It was generated using the problem generator of Rhyd Lewis
c
c GRAPH STATS
c Seed                             = 1472848630
c Number of Nodes                  = 100
c Number of colours k              = 2
c Number of pre-assignments        = 30
c Number of links per new node     = 5
c Density                          = 0.0979798
c 
c The degrees of nodes 1 to 100, respectively, are as follows 
c [50, 37, 35, 30, 30, 28, 28, 25, 22, 18, 18, 17, 14, 14, 14, 11, 11, 11, 11, 11, 11, 11, 10, 10, 10, 9, 
c  9, 9, 9, 9, 9, 9, 9, 8, 8, 8, 8, 8, 8, 8, 8, 8, 8, 8, 8, 7, 7, 7, 7, 7, 7, 
c  7, 7, 7, 7, 7, 6, 6, 6, 6, 6, 6, 6, 6, 6, 6, 6, 6, 6, 6, 6, 6, 6, 6, 5, 5, 
c  5, 5, 5, 5, 5, 5, 5, 5, 5, 5, 5, 5, 5, 5, 5, 5, 5, 5, 5, 5, 5, 5, 5, 5] 
c  
p edge 100 485 2
e 1 2
e 1 3
e 1 4
e 1 5
e 1 6
e 1 8
e 1 9
e 1 11
e 1 12
e 1 15
e 1 17
e 1 19
e 1 20
e 1 21
e 1 22
e 1 24
e 1 28
e 1 29
e 1 32
e 1 34
e 1 36
e 1 38
e 1 39
e 1 41
e 1 44
e 1 48
e 1 50
e 1 51
e 1 54
e 1 57
e 1 60
e 1 62
e 1 63
e 1 65
e 1 67
e 1 69
e 1 72
e 1 73
e 1 74
e 1 75
e 1 80
e 1 86
e 1 90
e 1 91
e 1 92
e 1 94
e 1 95
e 1 96
e 1 99
e 1 100
e 2 3
e 2 4
e 2 5
e 2 6
e 2 9
e 2 10
e 2 12
e 2 14
e 2 15
e 2 16
e 2 19
e 2 23
e 2 27
e 2 33
e 2 34
e 2 35
e 2 37
e 2 38
e 2 40
e 2 41
e 2 42
e 2 45
e 2 48
e 2 49
e 2 51
e 2 53
e 2 56
e 2 62
e 2 65
e 2 66
e 2 70
e 2 71
e 2 82
e 2 84
e 2 95
e 2 96
e 3 4
e 3 5
e 3 6
e 3 7
e 3 9
e 3 10
e 3 11
e 3 12
e 3 13
e 3 14
e 3 15
e 3 16
e 3 19
e 3 22
e 3 23
e 3 24
e 3 30
e 3 31
e 3 32
e 3 34
e 3 37
e 3 38
e 3 41
e 3 42
e 3 58
e 3 67
e 3 72
e 3 77
e 3 78
e 3 79
e 3 83
e 3 86
e 3 93
e 4 6
e 4 9
e 4 10
e 4 11
e 4 12
e 4 13
e 4 17
e 4 18
e 4 20
e 4 27
e 4 29
e 4 30
e 4 35
e 4 36
e 4 40
e 4 44
e 4 46
e 4 52
e 4 58
e 4 60
e 4 71
e 4 80
e 4 81
e 4 82
e 4 83
e 4 89
e 4 94
e 5 6
e 5 7
e 5 8
e 5 9
e 5 11
e 5 16
e 5 22
e 5 24
e 5 26
e 5 27
e 5 28
e 5 34
e 5 35
e 5 36
e 5 38
e 5 45
e 5 49
e 5 52
e 5 53
e 5 57
e 5 62
e 5 64
e 5 75
e 5 83
e 5 87
e 5 93
e 5 98
e 6 7
e 6 8
e 6 12
e 6 13
e 6 14
e 6 16
e 6 24
e 6 26
e 6 30
e 6 33
e 6 35
e 6 36
e 6 37
e 6 40
e 6 45
e 6 48
e 6 54
e 6 63
e 6 70
e 6 71
e 6 80
e 6 88
e 6 95
e 7 8
e 7 9
e 7 12
e 7 17
e 7 18
e 7 23
e 7 29
e 7 31
e 7 33
e 7 37
e 7 40
e 7 44
e 7 47
e 7 49
e 7 52
e 7 62
e 7 66
e 7 70
e 7 74
e 7 75
e 7 80
e 7 81
e 7 83
e 7 93
e 7 98
e 8 9
e 8 18
e 8 26
e 8 28
e 8 31
e 8 32
e 8 35
e 8 38
e 8 39
e 8 46
e 8 54
e 8 55
e 8 57
e 8 58
e 8 59
e 8 61
e 8 64
e 8 68
e 8 69
e 8 84
e 8 100
e 9 10
e 9 11
e 9 12
e 9 18
e 9 22
e 9 28
e 9 41
e 9 47
e 9 53
e 9 68
e 9 69
e 9 70
e 9 78
e 9 88
e 9 96
e 10 12
e 10 14
e 10 16
e 10 26
e 10 29
e 10 32
e 10 34
e 10 36
e 10 56
e 10 60
e 10 69
e 10 75
e 10 78
e 10 99
e 11 13
e 11 19
e 11 21
e 11 28
e 11 30
e 11 31
e 11 47
e 11 48
e 11 50
e 11 74
e 11 79
e 11 86
e 11 93
e 12 13
e 12 17
e 12 24
e 12 26
e 12 29
e 12 57
e 12 73
e 12 79
e 12 85
e 13 14
e 13 18
e 13 25
e 13 27
e 13 32
e 13 39
e 13 49
e 13 72
e 13 87
e 14 19
e 14 20
e 14 23
e 14 25
e 14 39
e 14 51
e 14 56
e 14 64
e 14 97
e 15 21
e 15 26
e 15 33
e 15 46
e 15 55
e 15 59
e 15 60
e 15 74
e 15 75
e 15 76
e 15 85
e 16 17
e 16 20
e 16 25
e 16 30
e 16 46
e 16 53
e 17 21
e 17 27
e 17 46
e 17 58
e 17 78
e 17 97
e 18 42
e 18 43
e 18 76
e 18 79
e 18 92
e 18 94
e 19 22
e 19 50
e 19 55
e 19 59
e 19 77
e 19 92
e 20 23
e 20 41
e 20 45
e 20 47
e 20 54
e 20 73
e 20 98
e 21 34
e 21 53
e 21 69
e 21 82
e 21 92
e 21 97
e 21 100
e 22 33
e 22 51
e 22 61
e 22 66
e 22 72
e 22 97
e 23 35
e 23 42
e 23 45
e 23 76
e 23 98
e 24 47
e 24 54
e 24 61
e 24 64
e 24 89
e 25 27
e 25 50
e 25 56
e 25 71
e 25 85
e 25 86
e 25 100
e 26 50
e 26 71
e 26 90
e 27 46
e 27 49
e 27 99
e 28 39
e 28 40
e 28 67
e 28 83
e 29 43
e 29 67
e 29 76
e 29 97
e 30 43
e 30 64
e 30 76
e 30 89
e 31 43
e 31 52
e 31 60
e 31 63
e 31 91
e 32 52
e 32 61
e 32 65
e 32 93
e 33 55
e 33 63
e 33 66
e 33 67
e 34 70
e 34 87
e 35 57
e 35 59
e 36 58
e 36 78
e 36 96
e 37 46
e 37 50
e 37 73
e 37 74
e 38 77
e 38 86
e 38 91
e 39 62
e 39 77
e 39 87
e 40 48
e 40 51
e 40 65
e 41 42
e 41 68
e 41 95
e 42 43
e 42 61
e 42 84
e 43 48
e 43 63
e 43 82
e 44 52
e 44 60
e 44 80
e 44 81
e 44 85
e 45 88
e 45 91
e 45 98
e 47 94
e 47 99
e 48 59
e 49 72
e 49 85
e 50 82
e 51 88
e 51 91
e 52 90
e 53 84
e 53 96
e 54 65
e 54 94
e 55 64
e 55 88
e 55 89
e 56 68
e 56 73
e 56 99
e 57 90
e 58 81
e 59 77
e 61 95
e 62 79
e 63 66
e 65 68
e 66 68
e 67 81
e 69 87
e 70 92
e 71 84
e 72 100
e 73 90
e 74 89
n 11 1
n 12 2
n 15 1
n 20 2
n 23 2
n 27 2
n 28 1
n 30 1
n 32 2
n 34 1
n 35 2
n 41 2
n 49 2
n 51 2
n 52 2
n 56 1
n 57 2
n 62 2
n 63 2
n 64 1
n 66 2
n 69 2
n 70 1
n 71 2
n 74 1
n 78 1
n 88 2
n 94 1
n 98 2
n 100 1
